1241697
0,100,97,34,4,44,89,23,108,9,63,21,103,57,53,101,99,52,104,98,70,46,96,90,88,10,48,65,76,8,36,25,40,37,71,56,74,85,26,68,69,30,38,13,7,27,35,11,39,67,54,105,77,32,107,41,59,64,87,6,17,49,75,72,18,61,86,95,92,12,20,47,79,16,14,22,73,91,55,102,3,66,78,29,5,94,31,60,84,42,43,19,62,2,82,24,15,106,93,45,80,1,50,83,58,28,51,33,81,0